HUN,8,6,712
1,21,2,28,0,22,3,21,5,28,4,28
3,23,2,22,1,26,0,24,4,27,5,29
0,29,5,27,4,24,3,25,2,22,1,28
0,30,5,23,2,21,4,27,3,21,1,24
0,28,3,21,2,29,4,29,5,21,1,24
5,21,0,22,1,24,4,25,2,29,3,24
1,27,2,29,5,29,4,24,0,28,3,25
2,26,3,30,5,26,1,28,0,30,4,26
